229053
229053
229053
229053
229053
222630
222630
222630
222630
222260
222260
221980
221980
218382
214718
214718
214718
214718
214718
214718
214718
214718
214718
214718
214718
214718
212897
212897
212897
212897
212897
212897
212281
212281
211327
206208
206208
204672
204672
204672
204672
204672
204672
203913
203913
203913
197242
195980
195058
195058
195058
195058
195058
195058
195058
195058
195058
195058
188570
188570
188570
188570
188570
188570
188570
188570
188570
188570
188570
188570
188570
188570
188570
188570
188570
188570
188570
188570
188570
188570
188570
188570
188570
188337
188337
188337
188337
188337
188337
185361
185361
185361
185361
185361
185361
185361
185361
185361
185352
185352
